p cnf 550 800
99 100 1 151 0
99 100 1 -151 0
-99 -100 1 152 0
-99 -100 1 -152 0
99 -100 -1 153 0
99 -100 -1 -153 0
-99 100 -1 154 0
-99 100 -1 -154 0
1 101 2 155 0
1 101 2 -155 0
-1 -101 2 156 0
-1 -101 2 -156 0
1 -101 -2 157 0
1 -101 -2 -157 0
-1 101 -2 158 0
-1 101 -2 -158 0
2 102 3 159 0
2 102 3 -159 0
-2 -102 3 160 0
-2 -102 3 -160 0
2 -102 -3 161 0
2 -102 -3 -161 0
-2 102 -3 162 0
-2 102 -3 -162 0
3 103 4 163 0
3 103 4 -163 0
-3 -103 4 164 0
-3 -103 4 -164 0
3 -103 -4 165 0
3 -103 -4 -165 0
-3 103 -4 166 0
-3 103 -4 -166 0
4 104 5 167 0
4 104 5 -167 0
-4 -104 5 168 0
-4 -104 5 -168 0
4 -104 -5 169 0
4 -104 -5 -169 0
-4 104 -5 170 0
-4 104 -5 -170 0
5 105 6 171 0
5 105 6 -171 0
-5 -105 6 172 0
-5 -105 6 -172 0
5 -105 -6 173 0
5 -105 -6 -173 0
-5 105 -6 174 0
-5 105 -6 -174 0
6 106 7 175 0
6 106 7 -175 0
-6 -106 7 176 0
-6 -106 7 -176 0
6 -106 -7 177 0
6 -106 -7 -177 0
-6 106 -7 178 0
-6 106 -7 -178 0
7 107 8 179 0
7 107 8 -179 0
-7 -107 8 180 0
-7 -107 8 -180 0
7 -107 -8 181 0
7 -107 -8 -181 0
-7 107 -8 182 0
-7 107 -8 -182 0
8 108 9 183 0
8 108 9 -183 0
-8 -108 9 184 0
-8 -108 9 -184 0
8 -108 -9 185 0
8 -108 -9 -185 0
-8 108 -9 186 0
-8 108 -9 -186 0
9 109 10 187 0
9 109 10 -187 0
-9 -109 10 188 0
-9 -109 10 -188 0
9 -109 -10 189 0
9 -109 -10 -189 0
-9 109 -10 190 0
-9 109 -10 -190 0
10 110 11 191 0
10 110 11 -191 0
-10 -110 11 192 0
-10 -110 11 -192 0
10 -110 -11 193 0
10 -110 -11 -193 0
-10 110 -11 194 0
-10 110 -11 -194 0
11 111 12 195 0
11 111 12 -195 0
-11 -111 12 196 0
-11 -111 12 -196 0
11 -111 -12 197 0
11 -111 -12 -197 0
-11 111 -12 198 0
-11 111 -12 -198 0
12 112 13 199 0
12 112 13 -199 0
-12 -112 13 200 0
-12 -112 13 -200 0
12 -112 -13 201 0
12 -112 -13 -201 0
-12 112 -13 202 0
-12 112 -13 -202 0
13 113 14 203 0
13 113 14 -203 0
-13 -113 14 204 0
-13 -113 14 -204 0
13 -113 -14 205 0
13 -113 -14 -205 0
-13 113 -14 206 0
-13 113 -14 -206 0
14 114 15 207 0
14 114 15 -207 0
-14 -114 15 208 0
-14 -114 15 -208 0
14 -114 -15 209 0
14 -114 -15 -209 0
-14 114 -15 210 0
-14 114 -15 -210 0
15 115 16 211 0
15 115 16 -211 0
-15 -115 16 212 0
-15 -115 16 -212 0
15 -115 -16 213 0
15 -115 -16 -213 0
-15 115 -16 214 0
-15 115 -16 -214 0
16 116 17 215 0
16 116 17 -215 0
-16 -116 17 216 0
-16 -116 17 -216 0
16 -116 -17 217 0
16 -116 -17 -217 0
-16 116 -17 218 0
-16 116 -17 -218 0
17 117 18 219 0
17 117 18 -219 0
-17 -117 18 220 0
-17 -117 18 -220 0
17 -117 -18 221 0
17 -117 -18 -221 0
-17 117 -18 222 0
-17 117 -18 -222 0
18 118 19 223 0
18 118 19 -223 0
-18 -118 19 224 0
-18 -118 19 -224 0
18 -118 -19 225 0
18 -118 -19 -225 0
-18 118 -19 226 0
-18 118 -19 -226 0
19 119 20 227 0
19 119 20 -227 0
-19 -119 20 228 0
-19 -119 20 -228 0
19 -119 -20 229 0
19 -119 -20 -229 0
-19 119 -20 230 0
-19 119 -20 -230 0
20 120 21 231 0
20 120 21 -231 0
-20 -120 21 232 0
-20 -120 21 -232 0
20 -120 -21 233 0
20 -120 -21 -233 0
-20 120 -21 234 0
-20 120 -21 -234 0
21 121 22 235 0
21 121 22 -235 0
-21 -121 22 236 0
-21 -121 22 -236 0
21 -121 -22 237 0
21 -121 -22 -237 0
-21 121 -22 238 0
-21 121 -22 -238 0
22 122 23 239 0
22 122 23 -239 0
-22 -122 23 240 0
-22 -122 23 -240 0
22 -122 -23 241 0
22 -122 -23 -241 0
-22 122 -23 242 0
-22 122 -23 -242 0
23 123 24 243 0
23 123 24 -243 0
-23 -123 24 244 0
-23 -123 24 -244 0
23 -123 -24 245 0
23 -123 -24 -245 0
-23 123 -24 246 0
-23 123 -24 -246 0
24 124 25 247 0
24 124 25 -247 0
-24 -124 25 248 0
-24 -124 25 -248 0
24 -124 -25 249 0
24 -124 -25 -249 0
-24 124 -25 250 0
-24 124 -25 -250 0
25 125 26 251 0
25 125 26 -251 0
-25 -125 26 252 0
-25 -125 26 -252 0
25 -125 -26 253 0
25 -125 -26 -253 0
-25 125 -26 254 0
-25 125 -26 -254 0
26 126 27 255 0
26 126 27 -255 0
-26 -126 27 256 0
-26 -126 27 -256 0
26 -126 -27 257 0
26 -126 -27 -257 0
-26 126 -27 258 0
-26 126 -27 -258 0
27 127 28 259 0
27 127 28 -259 0
-27 -127 28 260 0
-27 -127 28 -260 0
27 -127 -28 261 0
27 -127 -28 -261 0
-27 127 -28 262 0
-27 127 -28 -262 0
28 128 29 263 0
28 128 29 -263 0
-28 -128 29 264 0
-28 -128 29 -264 0
28 -128 -29 265 0
28 -128 -29 -265 0
-28 128 -29 266 0
-28 128 -29 -266 0
29 129 30 267 0
29 129 30 -267 0
-29 -129 30 268 0
-29 -129 30 -268 0
29 -129 -30 269 0
29 -129 -30 -269 0
-29 129 -30 270 0
-29 129 -30 -270 0
30 130 31 271 0
30 130 31 -271 0
-30 -130 31 272 0
-30 -130 31 -272 0
30 -130 -31 273 0
30 -130 -31 -273 0
-30 130 -31 274 0
-30 130 -31 -274 0
31 131 32 275 0
31 131 32 -275 0
-31 -131 32 276 0
-31 -131 32 -276 0
31 -131 -32 277 0
31 -131 -32 -277 0
-31 131 -32 278 0
-31 131 -32 -278 0
32 132 33 279 0
32 132 33 -279 0
-32 -132 33 280 0
-32 -132 33 -280 0
32 -132 -33 281 0
32 -132 -33 -281 0
-32 132 -33 282 0
-32 132 -33 -282 0
33 133 34 283 0
33 133 34 -283 0
-33 -133 34 284 0
-33 -133 34 -284 0
33 -133 -34 285 0
33 -133 -34 -285 0
-33 133 -34 286 0
-33 133 -34 -286 0
34 134 35 287 0
34 134 35 -287 0
-34 -134 35 288 0
-34 -134 35 -288 0
34 -134 -35 289 0
34 -134 -35 -289 0
-34 134 -35 290 0
-34 134 -35 -290 0
35 135 36 291 0
35 135 36 -291 0
-35 -135 36 292 0
-35 -135 36 -292 0
35 -135 -36 293 0
35 -135 -36 -293 0
-35 135 -36 294 0
-35 135 -36 -294 0
36 136 37 295 0
36 136 37 -295 0
-36 -136 37 296 0
-36 -136 37 -296 0
36 -136 -37 297 0
36 -136 -37 -297 0
-36 136 -37 298 0
-36 136 -37 -298 0
37 137 38 299 0
37 137 38 -299 0
-37 -137 38 300 0
-37 -137 38 -300 0
37 -137 -38 301 0
37 -137 -38 -301 0
-37 137 -38 302 0
-37 137 -38 -302 0
38 138 39 303 0
38 138 39 -303 0
-38 -138 39 304 0
-38 -138 39 -304 0
38 -138 -39 305 0
38 -138 -39 -305 0
-38 138 -39 306 0
-38 138 -39 -306 0
39 139 40 307 0
39 139 40 -307 0
-39 -139 40 308 0
-39 -139 40 -308 0
39 -139 -40 309 0
39 -139 -40 -309 0
-39 139 -40 310 0
-39 139 -40 -310 0
40 140 41 311 0
40 140 41 -311 0
-40 -140 41 312 0
-40 -140 41 -312 0
40 -140 -41 313 0
40 -140 -41 -313 0
-40 140 -41 314 0
-40 140 -41 -314 0
41 141 42 315 0
41 141 42 -315 0
-41 -141 42 316 0
-41 -141 42 -316 0
41 -141 -42 317 0
41 -141 -42 -317 0
-41 141 -42 318 0
-41 141 -42 -318 0
42 142 43 319 0
42 142 43 -319 0
-42 -142 43 320 0
-42 -142 43 -320 0
42 -142 -43 321 0
42 -142 -43 -321 0
-42 142 -43 322 0
-42 142 -43 -322 0
43 143 44 323 0
43 143 44 -323 0
-43 -143 44 324 0
-43 -143 44 -324 0
43 -143 -44 325 0
43 -143 -44 -325 0
-43 143 -44 326 0
-43 143 -44 -326 0
44 144 45 327 0
44 144 45 -327 0
-44 -144 45 328 0
-44 -144 45 -328 0
44 -144 -45 329 0
44 -144 -45 -329 0
-44 144 -45 330 0
-44 144 -45 -330 0
45 145 46 331 0
45 145 46 -331 0
-45 -145 46 332 0
-45 -145 46 -332 0
45 -145 -46 333 0
45 -145 -46 -333 0
-45 145 -46 334 0
-45 145 -46 -334 0
46 146 47 335 0
46 146 47 -335 0
-46 -146 47 336 0
-46 -146 47 -336 0
46 -146 -47 337 0
46 -146 -47 -337 0
-46 146 -47 338 0
-46 146 -47 -338 0
47 147 48 339 0
47 147 48 -339 0
-47 -147 48 340 0
-47 -147 48 -340 0
47 -147 -48 341 0
47 -147 -48 -341 0
-47 147 -48 342 0
-47 147 -48 -342 0
48 148 49 343 0
48 148 49 -343 0
-48 -148 49 344 0
-48 -148 49 -344 0
48 -148 -49 345 0
48 -148 -49 -345 0
-48 148 -49 346 0
-48 148 -49 -346 0
49 149 150 347 0
49 149 150 -347 0
-49 -149 150 348 0
-49 -149 150 -348 0
49 -149 -150 349 0
49 -149 -150 -349 0
-49 149 -150 350 0
-49 149 -150 -350 0
50 149 150 351 0
50 149 150 -351 0
-50 -149 150 352 0
-50 -149 150 -352 0
50 -149 -150 353 0
50 -149 -150 -353 0
-50 149 -150 354 0
-50 149 -150 -354 0
51 148 50 355 0
51 148 50 -355 0
-51 -148 50 356 0
-51 -148 50 -356 0
51 -148 -50 357 0
51 -148 -50 -357 0
-51 148 -50 358 0
-51 148 -50 -358 0
52 147 51 359 0
52 147 51 -359 0
-52 -147 51 360 0
-52 -147 51 -360 0
52 -147 -51 361 0
52 -147 -51 -361 0
-52 147 -51 362 0
-52 147 -51 -362 0
53 146 52 363 0
53 146 52 -363 0
-53 -146 52 364 0
-53 -146 52 -364 0
53 -146 -52 365 0
53 -146 -52 -365 0
-53 146 -52 366 0
-53 146 -52 -366 0
54 145 53 367 0
54 145 53 -367 0
-54 -145 53 368 0
-54 -145 53 -368 0
54 -145 -53 369 0
54 -145 -53 -369 0
-54 145 -53 370 0
-54 145 -53 -370 0
55 144 54 371 0
55 144 54 -371 0
-55 -144 54 372 0
-55 -144 54 -372 0
55 -144 -54 373 0
55 -144 -54 -373 0
-55 144 -54 374 0
-55 144 -54 -374 0
56 143 55 375 0
56 143 55 -375 0
-56 -143 55 376 0
-56 -143 55 -376 0
56 -143 -55 377 0
56 -143 -55 -377 0
-56 143 -55 378 0
-56 143 -55 -378 0
57 142 56 379 0
57 142 56 -379 0
-57 -142 56 380 0
-57 -142 56 -380 0
57 -142 -56 381 0
57 -142 -56 -381 0
-57 142 -56 382 0
-57 142 -56 -382 0
58 141 57 383 0
58 141 57 -383 0
-58 -141 57 384 0
-58 -141 57 -384 0
58 -141 -57 385 0
58 -141 -57 -385 0
-58 141 -57 386 0
-58 141 -57 -386 0
59 140 58 387 0
59 140 58 -387 0
-59 -140 58 388 0
-59 -140 58 -388 0
59 -140 -58 389 0
59 -140 -58 -389 0
-59 140 -58 390 0
-59 140 -58 -390 0
60 139 59 391 0
60 139 59 -391 0
-60 -139 59 392 0
-60 -139 59 -392 0
60 -139 -59 393 0
60 -139 -59 -393 0
-60 139 -59 394 0
-60 139 -59 -394 0
61 138 60 395 0
61 138 60 -395 0
-61 -138 60 396 0
-61 -138 60 -396 0
61 -138 -60 397 0
61 -138 -60 -397 0
-61 138 -60 398 0
-61 138 -60 -398 0
62 137 61 399 0
62 137 61 -399 0
-62 -137 61 400 0
-62 -137 61 -400 0
62 -137 -61 401 0
62 -137 -61 -401 0
-62 137 -61 402 0
-62 137 -61 -402 0
63 136 62 403 0
63 136 62 -403 0
-63 -136 62 404 0
-63 -136 62 -404 0
63 -136 -62 405 0
63 -136 -62 -405 0
-63 136 -62 406 0
-63 136 -62 -406 0
64 135 63 407 0
64 135 63 -407 0
-64 -135 63 408 0
-64 -135 63 -408 0
64 -135 -63 409 0
64 -135 -63 -409 0
-64 135 -63 410 0
-64 135 -63 -410 0
65 134 64 411 0
65 134 64 -411 0
-65 -134 64 412 0
-65 -134 64 -412 0
65 -134 -64 413 0
65 -134 -64 -413 0
-65 134 -64 414 0
-65 134 -64 -414 0
66 133 65 415 0
66 133 65 -415 0
-66 -133 65 416 0
-66 -133 65 -416 0
66 -133 -65 417 0
66 -133 -65 -417 0
-66 133 -65 418 0
-66 133 -65 -418 0
67 132 66 419 0
67 132 66 -419 0
-67 -132 66 420 0
-67 -132 66 -420 0
67 -132 -66 421 0
67 -132 -66 -421 0
-67 132 -66 422 0
-67 132 -66 -422 0
68 131 67 423 0
68 131 67 -423 0
-68 -131 67 424 0
-68 -131 67 -424 0
68 -131 -67 425 0
68 -131 -67 -425 0
-68 131 -67 426 0
-68 131 -67 -426 0
69 130 68 427 0
69 130 68 -427 0
-69 -130 68 428 0
-69 -130 68 -428 0
69 -130 -68 429 0
69 -130 -68 -429 0
-69 130 -68 430 0
-69 130 -68 -430 0
70 129 69 431 0
70 129 69 -431 0
-70 -129 69 432 0
-70 -129 69 -432 0
70 -129 -69 433 0
70 -129 -69 -433 0
-70 129 -69 434 0
-70 129 -69 -434 0
71 128 70 435 0
71 128 70 -435 0
-71 -128 70 436 0
-71 -128 70 -436 0
71 -128 -70 437 0
71 -128 -70 -437 0
-71 128 -70 438 0
-71 128 -70 -438 0
72 127 71 439 0
72 127 71 -439 0
-72 -127 71 440 0
-72 -127 71 -440 0
72 -127 -71 441 0
72 -127 -71 -441 0
-72 127 -71 442 0
-72 127 -71 -442 0
73 126 72 443 0
73 126 72 -443 0
-73 -126 72 444 0
-73 -126 72 -444 0
73 -126 -72 445 0
73 -126 -72 -445 0
-73 126 -72 446 0
-73 126 -72 -446 0
74 125 73 447 0
74 125 73 -447 0
-74 -125 73 448 0
-74 -125 73 -448 0
74 -125 -73 449 0
74 -125 -73 -449 0
-74 125 -73 450 0
-74 125 -73 -450 0
75 124 74 451 0
75 124 74 -451 0
-75 -124 74 452 0
-75 -124 74 -452 0
75 -124 -74 453 0
75 -124 -74 -453 0
-75 124 -74 454 0
-75 124 -74 -454 0
76 123 75 455 0
76 123 75 -455 0
-76 -123 75 456 0
-76 -123 75 -456 0
76 -123 -75 457 0
76 -123 -75 -457 0
-76 123 -75 458 0
-76 123 -75 -458 0
77 122 76 459 0
77 122 76 -459 0
-77 -122 76 460 0
-77 -122 76 -460 0
77 -122 -76 461 0
77 -122 -76 -461 0
-77 122 -76 462 0
-77 122 -76 -462 0
78 121 77 463 0
78 121 77 -463 0
-78 -121 77 464 0
-78 -121 77 -464 0
78 -121 -77 465 0
78 -121 -77 -465 0
-78 121 -77 466 0
-78 121 -77 -466 0
79 120 78 467 0
79 120 78 -467 0
-79 -120 78 468 0
-79 -120 78 -468 0
79 -120 -78 469 0
79 -120 -78 -469 0
-79 120 -78 470 0
-79 120 -78 -470 0
80 119 79 471 0
80 119 79 -471 0
-80 -119 79 472 0
-80 -119 79 -472 0
80 -119 -79 473 0
80 -119 -79 -473 0
-80 119 -79 474 0
-80 119 -79 -474 0
81 118 80 475 0
81 118 80 -475 0
-81 -118 80 476 0
-81 -118 80 -476 0
81 -118 -80 477 0
81 -118 -80 -477 0
-81 118 -80 478 0
-81 118 -80 -478 0
82 117 81 479 0
82 117 81 -479 0
-82 -117 81 480 0
-82 -117 81 -480 0
82 -117 -81 481 0
82 -117 -81 -481 0
-82 117 -81 482 0
-82 117 -81 -482 0
83 116 82 483 0
83 116 82 -483 0
-83 -116 82 484 0
-83 -116 82 -484 0
83 -116 -82 485 0
83 -116 -82 -485 0
-83 116 -82 486 0
-83 116 -82 -486 0
84 115 83 487 0
84 115 83 -487 0
-84 -115 83 488 0
-84 -115 83 -488 0
84 -115 -83 489 0
84 -115 -83 -489 0
-84 115 -83 490 0
-84 115 -83 -490 0
85 114 84 491 0
85 114 84 -491 0
-85 -114 84 492 0
-85 -114 84 -492 0
85 -114 -84 493 0
85 -114 -84 -493 0
-85 114 -84 494 0
-85 114 -84 -494 0
86 113 85 495 0
86 113 85 -495 0
-86 -113 85 496 0
-86 -113 85 -496 0
86 -113 -85 497 0
86 -113 -85 -497 0
-86 113 -85 498 0
-86 113 -85 -498 0
87 112 86 499 0
87 112 86 -499 0
-87 -112 86 500 0
-87 -112 86 -500 0
87 -112 -86 501 0
87 -112 -86 -501 0
-87 112 -86 502 0
-87 112 -86 -502 0
88 111 87 503 0
88 111 87 -503 0
-88 -111 87 504 0
-88 -111 87 -504 0
88 -111 -87 505 0
88 -111 -87 -505 0
-88 111 -87 506 0
-88 111 -87 -506 0
89 110 88 507 0
89 110 88 -507 0
-89 -110 88 508 0
-89 -110 88 -508 0
89 -110 -88 509 0
89 -110 -88 -509 0
-89 110 -88 510 0
-89 110 -88 -510 0
90 109 89 511 0
90 109 89 -511 0
-90 -109 89 512 0
-90 -109 89 -512 0
90 -109 -89 513 0
90 -109 -89 -513 0
-90 109 -89 514 0
-90 109 -89 -514 0
91 108 90 515 0
91 108 90 -515 0
-91 -108 90 516 0
-91 -108 90 -516 0
91 -108 -90 517 0
91 -108 -90 -517 0
-91 108 -90 518 0
-91 108 -90 -518 0
92 107 91 519 0
92 107 91 -519 0
-92 -107 91 520 0
-92 -107 91 -520 0
92 -107 -91 521 0
92 -107 -91 -521 0
-92 107 -91 522 0
-92 107 -91 -522 0
93 106 92 523 0
93 106 92 -523 0
-93 -106 92 524 0
-93 -106 92 -524 0
93 -106 -92 525 0
93 -106 -92 -525 0
-93 106 -92 526 0
-93 106 -92 -526 0
94 105 93 527 0
94 105 93 -527 0
-94 -105 93 528 0
-94 -105 93 -528 0
94 -105 -93 529 0
94 -105 -93 -529 0
-94 105 -93 530 0
-94 105 -93 -530 0
95 104 94 531 0
95 104 94 -531 0
-95 -104 94 532 0
-95 -104 94 -532 0
95 -104 -94 533 0
95 -104 -94 -533 0
-95 104 -94 534 0
-95 104 -94 -534 0
96 103 95 535 0
96 103 95 -535 0
-96 -103 95 536 0
-96 -103 95 -536 0
96 -103 -95 537 0
96 -103 -95 -537 0
-96 103 -95 538 0
-96 103 -95 -538 0
97 102 96 539 0
97 102 96 -539 0
-97 -102 96 540 0
-97 -102 96 -540 0
97 -102 -96 541 0
97 -102 -96 -541 0
-97 102 -96 542 0
-97 102 -96 -542 0
98 101 97 543 0
98 101 97 -543 0
-98 -101 97 544 0
-98 -101 97 -544 0
98 -101 -97 545 0
98 -101 -97 -545 0
-98 101 -97 546 0
-98 101 -97 -546 0
99 100 -98 547 0
99 100 -98 -547 0
-99 -100 -98 548 0
-99 -100 -98 -548 0
99 -100 98 549 0
99 -100 98 -549 0
-99 100 98 550 0
-99 100 98 -550 0
